NAME: random problem
TYPE: MTSP
COMMENT: MTSP problem for MRS UAV summer school
DIMENSION: 20
NUMBER_OF_ROBOTS: 2
START_TARGET_INDEXES: 1, 2
NEIGHBORHOOD_RADIUS: 2
EDGE_WEIGHT_TYPE: EUC_2D
NODE_COORD_SECTION
1 15.0 -21.0
2 -5.0 -25.0
3 33.4 -17.2
4 27.2 23.2
5 28.1 6.4
6 15.3 -1.0
7 -23.4 -3.9
8 29.6 4.7
9 -38.7 -2.1
10 -36.3 -6.7
11 -40.2 2.5
12 -24.0 -22.4
13 -25.3 -16.4
14 -22.0 1.0
15 8.9 11.4
16 29.9 6.0
17 -25.2 -31.3
18 -5.8 -1.3
19 -19.0 -20.2
20 -14.7 -4.6
EOF
